interface i1
{
  in void event();
  behavior {}
}
component c1
{
  provides i1 p;
}
component c2
{
  requires i1 r;
}
component decompose2
{
  system
  {
    c1 ci1;
    c2 ci2;
    ci1.p <=> ci2.r;
  }
}
